# Solution for model MIP
# Objective value = -1.5794122729117899e+02
team_t0_s0 1
team_t1_s0 0
team_t2_s0 0
team_t3_s0 1
team_t4_s0 0
team_t5_s0 0
team_t6_s0 0
team_t7_s0 0
team_t8_s0 0
team_t9_s0 0
team_t10_s0 0
team_t11_s0 1
team_t12_s0 0
team_t13_s0 0
team_t14_s0 0
team_t15_s0 0
team_t16_s0 0
team_t17_s0 0
team_t18_s0 0
team_t19_s0 0
team_t20_s0 0
team_t21_s0 0
team_t22_s0 0
team_t23_s0 0
team_t24_s0 0
team_t25_s0 0
team_t26_s0 0
team_t27_s0 0
team_t28_s0 0
team_t29_s0 0
team_t30_s0 0
team_t31_s0 0
team_t32_s0 0
team_t33_s0 1
team_t34_s0 0
team_t35_s0 0
team_t36_s0 0
team_t37_s0 0
team_t38_s0 1
team_t39_s0 0
team_t40_s0 0
team_t41_s0 0
theta -9.9208048846708110e+01
z_w0_k0_m0 9.4152062095842304e-01
z_w0_k0_m1 9.6419427110349509e-01
z_w0_k1_m0 9.4152062095842304e-01
z_w0_k1_m1 9.6419427110349509e-01
z_w0_k2_m0 9.4152062095842304e-01
z_w0_k2_m1 9.6419427110349509e-01
z_w1_k0_m0 9.3003663692051619e-01
z_w1_k0_m1 9.6450318205436170e-01
z_w1_k1_m0 9.4152062095842304e-01
z_w1_k1_m1 9.6419427110349509e-01
z_w1_k2_m0 8.1067166250628231e-01
z_w1_k2_m1 9.6771401442967475e-01
z_w2_k0_m0 9.3003663692051619e-01
z_w2_k0_m1 9.3003663692051619e-01
z_w2_k1_m0 9.0205045183810717e-01
z_w2_k1_m1 8.8147186517717069e-01
z_w2_k2_m0 8.3184817063625949e-01
z_w2_k2_m1 8.1067166250628231e-01
z_w3_k0_m0 9.3003663692051619e-01
z_w3_k0_m1 9.3003663692051619e-01
z_w3_k1_m0 9.1370889418173218e-01
z_w3_k1_m1 8.8147186517717058e-01
z_w3_k2_m0 9.1214376468104363e-01
z_w3_k2_m1 8.7681658868453172e-01
z_w4_k0_m0 9.4152062095842304e-01
z_w4_k0_m1 9.6419427110349509e-01
z_w4_k1_m0 9.4152062095842315e-01
z_w4_k1_m1 9.6419427110349509e-01
z_w4_k2_m0 9.4152062095842304e-01
z_w4_k2_m1 9.6419427110349509e-01
pi_w0_t0_k0 1
pi_w0_t0_k1 1
pi_w0_t0_k2 1
pi_w0_t1_k0 0
pi_w0_t1_k1 0
pi_w0_t1_k2 0
pi_w0_t2_k0 0
pi_w0_t2_k1 0
pi_w0_t2_k2 0
pi_w0_t3_k0 0
pi_w0_t3_k1 0
pi_w0_t3_k2 0
pi_w0_t4_k0 0
pi_w0_t4_k1 0
pi_w0_t4_k2 0
pi_w0_t5_k0 0
pi_w0_t5_k1 0
pi_w0_t5_k2 0
pi_w0_t6_k0 0
pi_w0_t6_k1 0
pi_w0_t6_k2 0
pi_w0_t7_k0 0
pi_w0_t7_k1 0
pi_w0_t7_k2 0
pi_w0_t8_k0 0
pi_w0_t8_k1 0
pi_w0_t8_k2 0
pi_w0_t9_k0 0
pi_w0_t9_k1 0
pi_w0_t9_k2 0
pi_w0_t10_k0 0
pi_w0_t10_k1 0
pi_w0_t10_k2 0
pi_w0_t11_k0 0
pi_w0_t11_k1 0
pi_w0_t11_k2 0
pi_w0_t12_k0 0
pi_w0_t12_k1 0
pi_w0_t12_k2 0
pi_w0_t13_k0 0
pi_w0_t13_k1 0
pi_w0_t13_k2 0
pi_w0_t14_k0 0
pi_w0_t14_k1 0
pi_w0_t14_k2 0
pi_w0_t15_k0 0
pi_w0_t15_k1 0
pi_w0_t15_k2 0
pi_w0_t16_k0 0
pi_w0_t16_k1 0
pi_w0_t16_k2 0
pi_w0_t17_k0 0
pi_w0_t17_k1 0
pi_w0_t17_k2 0
pi_w0_t18_k0 0
pi_w0_t18_k1 0
pi_w0_t18_k2 0
pi_w0_t19_k0 0
pi_w0_t19_k1 0
pi_w0_t19_k2 0
pi_w0_t20_k0 0
pi_w0_t20_k1 0
pi_w0_t20_k2 0
pi_w0_t21_k0 0
pi_w0_t21_k1 0
pi_w0_t21_k2 0
pi_w0_t22_k0 0
pi_w0_t22_k1 0
pi_w0_t22_k2 0
pi_w0_t23_k0 0
pi_w0_t23_k1 0
pi_w0_t23_k2 0
pi_w0_t24_k0 0
pi_w0_t24_k1 0
pi_w0_t24_k2 0
pi_w0_t25_k0 0
pi_w0_t25_k1 0
pi_w0_t25_k2 0
pi_w0_t26_k0 0
pi_w0_t26_k1 0
pi_w0_t26_k2 0
pi_w0_t27_k0 0
pi_w0_t27_k1 0
pi_w0_t27_k2 0
pi_w0_t28_k0 0
pi_w0_t28_k1 0
pi_w0_t28_k2 0
pi_w0_t29_k0 0
pi_w0_t29_k1 0
pi_w0_t29_k2 0
pi_w0_t30_k0 0
pi_w0_t30_k1 0
pi_w0_t30_k2 0
pi_w0_t31_k0 0
pi_w0_t31_k1 0
pi_w0_t31_k2 0
pi_w0_t32_k0 0
pi_w0_t32_k1 0
pi_w0_t32_k2 0
pi_w0_t33_k0 0
pi_w0_t33_k1 0
pi_w0_t33_k2 0
pi_w0_t34_k0 0
pi_w0_t34_k1 0
pi_w0_t34_k2 0
pi_w0_t35_k0 0
pi_w0_t35_k1 0
pi_w0_t35_k2 0
pi_w0_t36_k0 0
pi_w0_t36_k1 0
pi_w0_t36_k2 0
pi_w0_t37_k0 0
pi_w0_t37_k1 0
pi_w0_t37_k2 0
pi_w0_t38_k0 0
pi_w0_t38_k1 0
pi_w0_t38_k2 0
pi_w0_t39_k0 0
pi_w0_t39_k1 0
pi_w0_t39_k2 0
pi_w0_t40_k0 0
pi_w0_t40_k1 0
pi_w0_t40_k2 0
pi_w0_t41_k0 0
pi_w0_t41_k1 0
pi_w0_t41_k2 0
pi_w1_t0_k0 9.5058035213358727e-01
pi_w1_t0_k1 1
pi_w1_t0_k2 4.3691062012566351e-01
pi_w1_t1_k0 0
pi_w1_t1_k1 0
pi_w1_t1_k2 0
pi_w1_t2_k0 0
pi_w1_t2_k1 0
pi_w1_t2_k2 0
pi_w1_t3_k0 4.9419647866412605e-02
pi_w1_t3_k1 0
pi_w1_t3_k2 5.6308937987433660e-01
pi_w1_t4_k0 0
pi_w1_t4_k1 0
pi_w1_t4_k2 0
pi_w1_t5_k0 0
pi_w1_t5_k1 0
pi_w1_t5_k2 0
pi_w1_t6_k0 0
pi_w1_t6_k1 0
pi_w1_t6_k2 0
pi_w1_t7_k0 0
pi_w1_t7_k1 0
pi_w1_t7_k2 0
pi_w1_t8_k0 0
pi_w1_t8_k1 0
pi_w1_t8_k2 0
pi_w1_t9_k0 0
pi_w1_t9_k1 0
pi_w1_t9_k2 0
pi_w1_t10_k0 0
pi_w1_t10_k1 0
pi_w1_t10_k2 0
pi_w1_t11_k0 0
pi_w1_t11_k1 0
pi_w1_t11_k2 0
pi_w1_t12_k0 0
pi_w1_t12_k1 0
pi_w1_t12_k2 0
pi_w1_t13_k0 0
pi_w1_t13_k1 0
pi_w1_t13_k2 0
pi_w1_t14_k0 0
pi_w1_t14_k1 0
pi_w1_t14_k2 0
pi_w1_t15_k0 0
pi_w1_t15_k1 0
pi_w1_t15_k2 0
pi_w1_t16_k0 0
pi_w1_t16_k1 0
pi_w1_t16_k2 0
pi_w1_t17_k0 0
pi_w1_t17_k1 0
pi_w1_t17_k2 0
pi_w1_t18_k0 0
pi_w1_t18_k1 0
pi_w1_t18_k2 0
pi_w1_t19_k0 0
pi_w1_t19_k1 0
pi_w1_t19_k2 0
pi_w1_t20_k0 0
pi_w1_t20_k1 0
pi_w1_t20_k2 0
pi_w1_t21_k0 0
pi_w1_t21_k1 0
pi_w1_t21_k2 0
pi_w1_t22_k0 0
pi_w1_t22_k1 0
pi_w1_t22_k2 0
pi_w1_t23_k0 0
pi_w1_t23_k1 0
pi_w1_t23_k2 0
pi_w1_t24_k0 0
pi_w1_t24_k1 0
pi_w1_t24_k2 0
pi_w1_t25_k0 0
pi_w1_t25_k1 0
pi_w1_t25_k2 0
pi_w1_t26_k0 0
pi_w1_t26_k1 0
pi_w1_t26_k2 0
pi_w1_t27_k0 0
pi_w1_t27_k1 0
pi_w1_t27_k2 0
pi_w1_t28_k0 0
pi_w1_t28_k1 0
pi_w1_t28_k2 0
pi_w1_t29_k0 0
pi_w1_t29_k1 0
pi_w1_t29_k2 0
pi_w1_t30_k0 0
pi_w1_t30_k1 0
pi_w1_t30_k2 0
pi_w1_t31_k0 0
pi_w1_t31_k1 0
pi_w1_t31_k2 0
pi_w1_t32_k0 0
pi_w1_t32_k1 0
pi_w1_t32_k2 0
pi_w1_t33_k0 0
pi_w1_t33_k1 0
pi_w1_t33_k2 0
pi_w1_t34_k0 0
pi_w1_t34_k1 0
pi_w1_t34_k2 0
pi_w1_t35_k0 0
pi_w1_t35_k1 0
pi_w1_t35_k2 0
pi_w1_t36_k0 0
pi_w1_t36_k1 0
pi_w1_t36_k2 0
pi_w1_t37_k0 0
pi_w1_t37_k1 0
pi_w1_t37_k2 0
pi_w1_t38_k0 0
pi_w1_t38_k1 0
pi_w1_t38_k2 0
pi_w1_t39_k0 0
pi_w1_t39_k1 0
pi_w1_t39_k2 0
pi_w1_t40_k0 0
pi_w1_t40_k1 0
pi_w1_t40_k2 0
pi_w1_t41_k0 0
pi_w1_t41_k1 0
pi_w1_t41_k2 0
pi_w2_t0_k0 0
pi_w2_t0_k1 0
pi_w2_t0_k2 0
pi_w2_t1_k0 0
pi_w2_t1_k1 0
pi_w2_t1_k2 0
pi_w2_t2_k0 0
pi_w2_t2_k1 0
pi_w2_t2_k2 0
pi_w2_t3_k0 3.8036498774015895e-02
pi_w2_t3_k1 4.9720744850447182e-02
pi_w2_t3_k2 3.1843898071633472e-02
pi_w2_t4_k0 0
pi_w2_t4_k1 0
pi_w2_t4_k2 0
pi_w2_t5_k0 0
pi_w2_t5_k1 0
pi_w2_t5_k2 0
pi_w2_t6_k0 0
pi_w2_t6_k1 0
pi_w2_t6_k2 0
pi_w2_t7_k0 0
pi_w2_t7_k1 0
pi_w2_t7_k2 0
pi_w2_t8_k0 0
pi_w2_t8_k1 0
pi_w2_t8_k2 0
pi_w2_t9_k0 0
pi_w2_t9_k1 0
pi_w2_t9_k2 0
pi_w2_t10_k0 0
pi_w2_t10_k1 0
pi_w2_t10_k2 0
pi_w2_t11_k0 0
pi_w2_t11_k1 0
pi_w2_t11_k2 1.7236494412069936e-01
pi_w2_t12_k0 0
pi_w2_t12_k1 0
pi_w2_t12_k2 0
pi_w2_t13_k0 0
pi_w2_t13_k1 0
pi_w2_t13_k2 0
pi_w2_t14_k0 0
pi_w2_t14_k1 0
pi_w2_t14_k2 0
pi_w2_t15_k0 0
pi_w2_t15_k1 0
pi_w2_t15_k2 0
pi_w2_t16_k0 0
pi_w2_t16_k1 0
pi_w2_t16_k2 0
pi_w2_t17_k0 0
pi_w2_t17_k1 0
pi_w2_t17_k2 0
pi_w2_t18_k0 0
pi_w2_t18_k1 0
pi_w2_t18_k2 0
pi_w2_t19_k0 0
pi_w2_t19_k1 0
pi_w2_t19_k2 0
pi_w2_t20_k0 0
pi_w2_t20_k1 0
pi_w2_t20_k2 0
pi_w2_t21_k0 0
pi_w2_t21_k1 0
pi_w2_t21_k2 0
pi_w2_t22_k0 0
pi_w2_t22_k1 0
pi_w2_t22_k2 0
pi_w2_t23_k0 0
pi_w2_t23_k1 0
pi_w2_t23_k2 0
pi_w2_t24_k0 0
pi_w2_t24_k1 0
pi_w2_t24_k2 0
pi_w2_t25_k0 0
pi_w2_t25_k1 0
pi_w2_t25_k2 0
pi_w2_t26_k0 0
pi_w2_t26_k1 0
pi_w2_t26_k2 0
pi_w2_t27_k0 0
pi_w2_t27_k1 0
pi_w2_t27_k2 0
pi_w2_t28_k0 0
pi_w2_t28_k1 0
pi_w2_t28_k2 0
pi_w2_t29_k0 0
pi_w2_t29_k1 0
pi_w2_t29_k2 0
pi_w2_t30_k0 0
pi_w2_t30_k1 0
pi_w2_t30_k2 0
pi_w2_t31_k0 0
pi_w2_t31_k1 0
pi_w2_t31_k2 0
pi_w2_t32_k0 0
pi_w2_t32_k1 0
pi_w2_t32_k2 0
pi_w2_t33_k0 5.4168386506870458e-01
pi_w2_t33_k1 9.5027925514955280e-01
pi_w2_t33_k2 7.9579115780766718e-01
pi_w2_t34_k0 0
pi_w2_t34_k1 0
pi_w2_t34_k2 0
pi_w2_t35_k0 0
pi_w2_t35_k1 0
pi_w2_t35_k2 0
pi_w2_t36_k0 0
pi_w2_t36_k1 0
pi_w2_t36_k2 0
pi_w2_t37_k0 0
pi_w2_t37_k1 0
pi_w2_t37_k2 0
pi_w2_t38_k0 4.2027963615727959e-01
pi_w2_t38_k1 0
pi_w2_t38_k2 0
pi_w2_t39_k0 0
pi_w2_t39_k1 0
pi_w2_t39_k2 0
pi_w2_t40_k0 0
pi_w2_t40_k1 0
pi_w2_t40_k2 0
pi_w2_t41_k0 0
pi_w2_t41_k1 0
pi_w2_t41_k2 0
pi_w3_t0_k0 6.0908056568497593e-01
pi_w3_t0_k1 5.3277637535836468e-02
pi_w3_t0_k2 0
pi_w3_t1_k0 0
pi_w3_t1_k1 0
pi_w3_t1_k2 0
pi_w3_t2_k0 0
pi_w3_t2_k1 0
pi_w3_t2_k2 0
pi_w3_t3_k0 0
pi_w3_t3_k1 0
pi_w3_t3_k2 0
pi_w3_t4_k0 0
pi_w3_t4_k1 0
pi_w3_t4_k2 0
pi_w3_t5_k0 0
pi_w3_t5_k1 0
pi_w3_t5_k2 0
pi_w3_t6_k0 0
pi_w3_t6_k1 0
pi_w3_t6_k2 0
pi_w3_t7_k0 0
pi_w3_t7_k1 0
pi_w3_t7_k2 0
pi_w3_t8_k0 0
pi_w3_t8_k1 0
pi_w3_t8_k2 0
pi_w3_t9_k0 0
pi_w3_t9_k1 0
pi_w3_t9_k2 0
pi_w3_t10_k0 0
pi_w3_t10_k1 0
pi_w3_t10_k2 0
pi_w3_t11_k0 0
pi_w3_t11_k1 0
pi_w3_t11_k2 0
pi_w3_t12_k0 0
pi_w3_t12_k1 0
pi_w3_t12_k2 0
pi_w3_t13_k0 0
pi_w3_t13_k1 0
pi_w3_t13_k2 0
pi_w3_t14_k0 0
pi_w3_t14_k1 0
pi_w3_t14_k2 0
pi_w3_t15_k0 0
pi_w3_t15_k1 0
pi_w3_t15_k2 0
pi_w3_t16_k0 0
pi_w3_t16_k1 0
pi_w3_t16_k2 0
pi_w3_t17_k0 0
pi_w3_t17_k1 0
pi_w3_t17_k2 0
pi_w3_t18_k0 0
pi_w3_t18_k1 0
pi_w3_t18_k2 0
pi_w3_t19_k0 0
pi_w3_t19_k1 0
pi_w3_t19_k2 0
pi_w3_t20_k0 0
pi_w3_t20_k1 0
pi_w3_t20_k2 0
pi_w3_t21_k0 0
pi_w3_t21_k1 0
pi_w3_t21_k2 0
pi_w3_t22_k0 0
pi_w3_t22_k1 0
pi_w3_t22_k2 0
pi_w3_t23_k0 0
pi_w3_t23_k1 0
pi_w3_t23_k2 0
pi_w3_t24_k0 0
pi_w3_t24_k1 0
pi_w3_t24_k2 0
pi_w3_t25_k0 0
pi_w3_t25_k1 0
pi_w3_t25_k2 0
pi_w3_t26_k0 0
pi_w3_t26_k1 0
pi_w3_t26_k2 0
pi_w3_t27_k0 0
pi_w3_t27_k1 0
pi_w3_t27_k2 0
pi_w3_t28_k0 0
pi_w3_t28_k1 0
pi_w3_t28_k2 0
pi_w3_t29_k0 0
pi_w3_t29_k1 0
pi_w3_t29_k2 0
pi_w3_t30_k0 0
pi_w3_t30_k1 0
pi_w3_t30_k2 0
pi_w3_t31_k0 0
pi_w3_t31_k1 0
pi_w3_t31_k2 0
pi_w3_t32_k0 0
pi_w3_t32_k1 0
pi_w3_t32_k2 0
pi_w3_t33_k0 3.9091943431502407e-01
pi_w3_t33_k1 9.4672236246416352e-01
pi_w3_t33_k2 1
pi_w3_t34_k0 0
pi_w3_t34_k1 0
pi_w3_t34_k2 0
pi_w3_t35_k0 0
pi_w3_t35_k1 0
pi_w3_t35_k2 0
pi_w3_t36_k0 0
pi_w3_t36_k1 0
pi_w3_t36_k2 0
pi_w3_t37_k0 0
pi_w3_t37_k1 0
pi_w3_t37_k2 0
pi_w3_t38_k0 0
pi_w3_t38_k1 0
pi_w3_t38_k2 0
pi_w3_t39_k0 0
pi_w3_t39_k1 0
pi_w3_t39_k2 0
pi_w3_t40_k0 0
pi_w3_t40_k1 0
pi_w3_t40_k2 0
pi_w3_t41_k0 0
pi_w3_t41_k1 0
pi_w3_t41_k2 0
pi_w4_t0_k0 1
pi_w4_t0_k1 1
pi_w4_t0_k2 1
pi_w4_t1_k0 0
pi_w4_t1_k1 0
pi_w4_t1_k2 0
pi_w4_t2_k0 0
pi_w4_t2_k1 0
pi_w4_t2_k2 0
pi_w4_t3_k0 0
pi_w4_t3_k1 0
pi_w4_t3_k2 0
pi_w4_t4_k0 0
pi_w4_t4_k1 0
pi_w4_t4_k2 0
pi_w4_t5_k0 0
pi_w4_t5_k1 0
pi_w4_t5_k2 0
pi_w4_t6_k0 0
pi_w4_t6_k1 0
pi_w4_t6_k2 0
pi_w4_t7_k0 0
pi_w4_t7_k1 0
pi_w4_t7_k2 0
pi_w4_t8_k0 0
pi_w4_t8_k1 0
pi_w4_t8_k2 0
pi_w4_t9_k0 0
pi_w4_t9_k1 0
pi_w4_t9_k2 0
pi_w4_t10_k0 0
pi_w4_t10_k1 0
pi_w4_t10_k2 0
pi_w4_t11_k0 0
pi_w4_t11_k1 0
pi_w4_t11_k2 0
pi_w4_t12_k0 0
pi_w4_t12_k1 0
pi_w4_t12_k2 0
pi_w4_t13_k0 0
pi_w4_t13_k1 0
pi_w4_t13_k2 0
pi_w4_t14_k0 0
pi_w4_t14_k1 0
pi_w4_t14_k2 0
pi_w4_t15_k0 0
pi_w4_t15_k1 0
pi_w4_t15_k2 0
pi_w4_t16_k0 0
pi_w4_t16_k1 0
pi_w4_t16_k2 0
pi_w4_t17_k0 0
pi_w4_t17_k1 0
pi_w4_t17_k2 0
pi_w4_t18_k0 0
pi_w4_t18_k1 0
pi_w4_t18_k2 0
pi_w4_t19_k0 0
pi_w4_t19_k1 0
pi_w4_t19_k2 0
pi_w4_t20_k0 0
pi_w4_t20_k1 0
pi_w4_t20_k2 0
pi_w4_t21_k0 0
pi_w4_t21_k1 0
pi_w4_t21_k2 0
pi_w4_t22_k0 0
pi_w4_t22_k1 0
pi_w4_t22_k2 0
pi_w4_t23_k0 0
pi_w4_t23_k1 0
pi_w4_t23_k2 0
pi_w4_t24_k0 0
pi_w4_t24_k1 0
pi_w4_t24_k2 0
pi_w4_t25_k0 0
pi_w4_t25_k1 0
pi_w4_t25_k2 0
pi_w4_t26_k0 0
pi_w4_t26_k1 0
pi_w4_t26_k2 0
pi_w4_t27_k0 0
pi_w4_t27_k1 0
pi_w4_t27_k2 0
pi_w4_t28_k0 0
pi_w4_t28_k1 0
pi_w4_t28_k2 0
pi_w4_t29_k0 0
pi_w4_t29_k1 0
pi_w4_t29_k2 0
pi_w4_t30_k0 0
pi_w4_t30_k1 0
pi_w4_t30_k2 0
pi_w4_t31_k0 0
pi_w4_t31_k1 0
pi_w4_t31_k2 0
pi_w4_t32_k0 0
pi_w4_t32_k1 0
pi_w4_t32_k2 0
pi_w4_t33_k0 0
pi_w4_t33_k1 0
pi_w4_t33_k2 0
pi_w4_t34_k0 0
pi_w4_t34_k1 0
pi_w4_t34_k2 0
pi_w4_t35_k0 0
pi_w4_t35_k1 0
pi_w4_t35_k2 0
pi_w4_t36_k0 0
pi_w4_t36_k1 0
pi_w4_t36_k2 0
pi_w4_t37_k0 0
pi_w4_t37_k1 0
pi_w4_t37_k2 0
pi_w4_t38_k0 0
pi_w4_t38_k1 0
pi_w4_t38_k2 0
pi_w4_t39_k0 0
pi_w4_t39_k1 0
pi_w4_t39_k2 0
pi_w4_t40_k0 0
pi_w4_t40_k1 0
pi_w4_t40_k2 0
pi_w4_t41_k0 0
pi_w4_t41_k1 0
pi_w4_t41_k2 0
n_w0_t0_k0 0
n_w0_t0_k1 0
n_w0_t0_k2 0
n_w0_t1_k0 0
n_w0_t1_k1 0
n_w0_t1_k2 0
n_w0_t2_k0 0
n_w0_t2_k1 0
n_w0_t2_k2 0
n_w0_t3_k0 0
n_w0_t3_k1 0
n_w0_t3_k2 0
n_w0_t4_k0 0
n_w0_t4_k1 0
n_w0_t4_k2 0
n_w0_t5_k0 0
n_w0_t5_k1 0
n_w0_t5_k2 0
n_w0_t6_k0 0
n_w0_t6_k1 0
n_w0_t6_k2 0
n_w0_t7_k0 0
n_w0_t7_k1 0
n_w0_t7_k2 0
n_w0_t8_k0 0
n_w0_t8_k1 0
n_w0_t8_k2 0
n_w0_t9_k0 0
n_w0_t9_k1 0
n_w0_t9_k2 0
n_w0_t10_k0 0
n_w0_t10_k1 0
n_w0_t10_k2 0
n_w0_t11_k0 0
n_w0_t11_k1 0
n_w0_t11_k2 0
n_w0_t12_k0 0
n_w0_t12_k1 0
n_w0_t12_k2 0
n_w0_t13_k0 0
n_w0_t13_k1 0
n_w0_t13_k2 0
n_w0_t14_k0 0
n_w0_t14_k1 0
n_w0_t14_k2 0
n_w0_t15_k0 0
n_w0_t15_k1 0
n_w0_t15_k2 0
n_w0_t16_k0 0
n_w0_t16_k1 0
n_w0_t16_k2 0
n_w0_t17_k0 0
n_w0_t17_k1 0
n_w0_t17_k2 0
n_w0_t18_k0 0
n_w0_t18_k1 0
n_w0_t18_k2 0
n_w0_t19_k0 0
n_w0_t19_k1 0
n_w0_t19_k2 0
n_w0_t20_k0 0
n_w0_t20_k1 0
n_w0_t20_k2 0
n_w0_t21_k0 0
n_w0_t21_k1 0
n_w0_t21_k2 0
n_w0_t22_k0 0
n_w0_t22_k1 0
n_w0_t22_k2 0
n_w0_t23_k0 0
n_w0_t23_k1 0
n_w0_t23_k2 0
n_w0_t24_k0 0
n_w0_t24_k1 0
n_w0_t24_k2 0
n_w0_t25_k0 0
n_w0_t25_k1 0
n_w0_t25_k2 0
n_w0_t26_k0 0
n_w0_t26_k1 0
n_w0_t26_k2 0
n_w0_t27_k0 0
n_w0_t27_k1 0
n_w0_t27_k2 0
n_w0_t28_k0 0
n_w0_t28_k1 0
n_w0_t28_k2 0
n_w0_t29_k0 0
n_w0_t29_k1 0
n_w0_t29_k2 0
n_w0_t30_k0 0
n_w0_t30_k1 0
n_w0_t30_k2 0
n_w0_t31_k0 0
n_w0_t31_k1 0
n_w0_t31_k2 0
n_w0_t32_k0 0
n_w0_t32_k1 0
n_w0_t32_k2 0
n_w0_t33_k0 0
n_w0_t33_k1 0
n_w0_t33_k2 0
n_w0_t34_k0 0
n_w0_t34_k1 0
n_w0_t34_k2 0
n_w0_t35_k0 0
n_w0_t35_k1 0
n_w0_t35_k2 0
n_w0_t36_k0 0
n_w0_t36_k1 0
n_w0_t36_k2 0
n_w0_t37_k0 0
n_w0_t37_k1 0
n_w0_t37_k2 0
n_w0_t38_k0 0
n_w0_t38_k1 0
n_w0_t38_k2 0
n_w0_t39_k0 0
n_w0_t39_k1 0
n_w0_t39_k2 0
n_w0_t40_k0 0
n_w0_t40_k1 0
n_w0_t40_k2 0
n_w0_t41_k0 0
n_w0_t41_k1 0
n_w0_t41_k2 0
n_w1_t0_k0 2.5665669507606857e+01
n_w1_t0_k1 0
n_w1_t0_k2 1.2233497363518579e+01
n_w1_t1_k0 0
n_w1_t1_k1 0
n_w1_t1_k2 0
n_w1_t2_k0 0
n_w1_t2_k1 0
n_w1_t2_k2 0
n_w1_t3_k0 1.3343304923931405e+00
n_w1_t3_k1 0
n_w1_t3_k2 1.5766502636481425e+01
n_w1_t4_k0 0
n_w1_t4_k1 0
n_w1_t4_k2 0
n_w1_t5_k0 0
n_w1_t5_k1 0
n_w1_t5_k2 0
n_w1_t6_k0 0
n_w1_t6_k1 0
n_w1_t6_k2 0
n_w1_t7_k0 0
n_w1_t7_k1 0
n_w1_t7_k2 0
n_w1_t8_k0 0
n_w1_t8_k1 0
n_w1_t8_k2 0
n_w1_t9_k0 0
n_w1_t9_k1 0
n_w1_t9_k2 0
n_w1_t10_k0 0
n_w1_t10_k1 0
n_w1_t10_k2 0
n_w1_t11_k0 0
n_w1_t11_k1 0
n_w1_t11_k2 0
n_w1_t12_k0 0
n_w1_t12_k1 0
n_w1_t12_k2 0
n_w1_t13_k0 0
n_w1_t13_k1 0
n_w1_t13_k2 0
n_w1_t14_k0 0
n_w1_t14_k1 0
n_w1_t14_k2 0
n_w1_t15_k0 0
n_w1_t15_k1 0
n_w1_t15_k2 0
n_w1_t16_k0 0
n_w1_t16_k1 0
n_w1_t16_k2 0
n_w1_t17_k0 0
n_w1_t17_k1 0
n_w1_t17_k2 0
n_w1_t18_k0 0
n_w1_t18_k1 0
n_w1_t18_k2 0
n_w1_t19_k0 0
n_w1_t19_k1 0
n_w1_t19_k2 0
n_w1_t20_k0 0
n_w1_t20_k1 0
n_w1_t20_k2 0
n_w1_t21_k0 0
n_w1_t21_k1 0
n_w1_t21_k2 0
n_w1_t22_k0 0
n_w1_t22_k1 0
n_w1_t22_k2 0
n_w1_t23_k0 0
n_w1_t23_k1 0
n_w1_t23_k2 0
n_w1_t24_k0 0
n_w1_t24_k1 0
n_w1_t24_k2 0
n_w1_t25_k0 0
n_w1_t25_k1 0
n_w1_t25_k2 0
n_w1_t26_k0 0
n_w1_t26_k1 0
n_w1_t26_k2 0
n_w1_t27_k0 0
n_w1_t27_k1 0
n_w1_t27_k2 0
n_w1_t28_k0 0
n_w1_t28_k1 0
n_w1_t28_k2 0
n_w1_t29_k0 0
n_w1_t29_k1 0
n_w1_t29_k2 0
n_w1_t30_k0 0
n_w1_t30_k1 0
n_w1_t30_k2 0
n_w1_t31_k0 0
n_w1_t31_k1 0
n_w1_t31_k2 0
n_w1_t32_k0 0
n_w1_t32_k1 0
n_w1_t32_k2 0
n_w1_t33_k0 0
n_w1_t33_k1 0
n_w1_t33_k2 0
n_w1_t34_k0 0
n_w1_t34_k1 0
n_w1_t34_k2 0
n_w1_t35_k0 0
n_w1_t35_k1 0
n_w1_t35_k2 0
n_w1_t36_k0 0
n_w1_t36_k1 0
n_w1_t36_k2 0
n_w1_t37_k0 0
n_w1_t37_k1 0
n_w1_t37_k2 0
n_w1_t38_k0 0
n_w1_t38_k1 0
n_w1_t38_k2 0
n_w1_t39_k0 0
n_w1_t39_k1 0
n_w1_t39_k2 0
n_w1_t40_k0 0
n_w1_t40_k1 0
n_w1_t40_k2 0
n_w1_t41_k0 0
n_w1_t41_k1 0
n_w1_t41_k2 0
n_w2_t0_k0 0
n_w2_t0_k1 0
n_w2_t0_k2 0
n_w2_t1_k0 0
n_w2_t1_k1 0
n_w2_t1_k2 0
n_w2_t2_k0 0
n_w2_t2_k1 0
n_w2_t2_k2 0
n_w2_t3_k0 5.3251098283622256e-01
n_w2_t3_k1 5.4195611886987427e+00
n_w2_t3_k2 5.0631797933897218e+00
n_w2_t4_k0 0
n_w2_t4_k1 0
n_w2_t4_k2 0
n_w2_t5_k0 0
n_w2_t5_k1 0
n_w2_t5_k2 0
n_w2_t6_k0 0
n_w2_t6_k1 0
n_w2_t6_k2 0
n_w2_t7_k0 0
n_w2_t7_k1 0
n_w2_t7_k2 0
n_w2_t8_k0 0
n_w2_t8_k1 0
n_w2_t8_k2 0
n_w2_t9_k0 0
n_w2_t9_k1 0
n_w2_t9_k2 0
n_w2_t10_k0 0
n_w2_t10_k1 0
n_w2_t10_k2 0
n_w2_t11_k0 0
n_w2_t11_k1 0
n_w2_t11_k2 2.7406026115191196e+01
n_w2_t12_k0 0
n_w2_t12_k1 0
n_w2_t12_k2 0
n_w2_t13_k0 0
n_w2_t13_k1 0
n_w2_t13_k2 0
n_w2_t14_k0 0
n_w2_t14_k1 0
n_w2_t14_k2 0
n_w2_t15_k0 0
n_w2_t15_k1 0
n_w2_t15_k2 0
n_w2_t16_k0 0
n_w2_t16_k1 0
n_w2_t16_k2 0
n_w2_t17_k0 0
n_w2_t17_k1 0
n_w2_t17_k2 0
n_w2_t18_k0 0
n_w2_t18_k1 0
n_w2_t18_k2 0
n_w2_t19_k0 0
n_w2_t19_k1 0
n_w2_t19_k2 0
n_w2_t20_k0 0
n_w2_t20_k1 0
n_w2_t20_k2 0
n_w2_t21_k0 0
n_w2_t21_k1 0
n_w2_t21_k2 0
n_w2_t22_k0 0
n_w2_t22_k1 0
n_w2_t22_k2 0
n_w2_t23_k0 0
n_w2_t23_k1 0
n_w2_t23_k2 0
n_w2_t24_k0 0
n_w2_t24_k1 0
n_w2_t24_k2 0
n_w2_t25_k0 0
n_w2_t25_k1 0
n_w2_t25_k2 0
n_w2_t26_k0 0
n_w2_t26_k1 0
n_w2_t26_k2 0
n_w2_t27_k0 0
n_w2_t27_k1 0
n_w2_t27_k2 0
n_w2_t28_k0 0
n_w2_t28_k1 0
n_w2_t28_k2 0
n_w2_t29_k0 0
n_w2_t29_k1 0
n_w2_t29_k2 0
n_w2_t30_k0 0
n_w2_t30_k1 0
n_w2_t30_k2 0
n_w2_t31_k0 0
n_w2_t31_k1 0
n_w2_t31_k2 0
n_w2_t32_k0 0
n_w2_t32_k1 0
n_w2_t32_k2 0
n_w2_t33_k0 7.5835741109618642e+00
n_w2_t33_k1 1.0358043881130125e+02
n_w2_t33_k2 1.2653079409141907e+02
n_w2_t34_k0 0
n_w2_t34_k1 0
n_w2_t34_k2 0
n_w2_t35_k0 0
n_w2_t35_k1 0
n_w2_t35_k2 0
n_w2_t36_k0 0
n_w2_t36_k1 0
n_w2_t36_k2 0
n_w2_t37_k0 0
n_w2_t37_k1 0
n_w2_t37_k2 0
n_w2_t38_k0 5.8839149062019143e+00
n_w2_t38_k1 0
n_w2_t38_k2 0
n_w2_t39_k0 0
n_w2_t39_k1 0
n_w2_t39_k2 0
n_w2_t40_k0 0
n_w2_t40_k1 0
n_w2_t40_k2 0
n_w2_t41_k0 0
n_w2_t41_k1 0
n_w2_t41_k2 0
n_w3_t0_k0 7.3089667882197116e+00
n_w3_t0_k1 8.5244220057338349e-01
n_w3_t0_k2 0
n_w3_t1_k0 0
n_w3_t1_k1 0
n_w3_t1_k2 0
n_w3_t2_k0 0
n_w3_t2_k1 0
n_w3_t2_k2 0
n_w3_t3_k0 0
n_w3_t3_k1 0
n_w3_t3_k2 0
n_w3_t4_k0 0
n_w3_t4_k1 0
n_w3_t4_k2 0
n_w3_t5_k0 0
n_w3_t5_k1 0
n_w3_t5_k2 0
n_w3_t6_k0 0
n_w3_t6_k1 0
n_w3_t6_k2 0
n_w3_t7_k0 0
n_w3_t7_k1 0
n_w3_t7_k2 0
n_w3_t8_k0 0
n_w3_t8_k1 0
n_w3_t8_k2 0
n_w3_t9_k0 0
n_w3_t9_k1 0
n_w3_t9_k2 0
n_w3_t10_k0 0
n_w3_t10_k1 0
n_w3_t10_k2 0
n_w3_t11_k0 0
n_w3_t11_k1 0
n_w3_t11_k2 0
n_w3_t12_k0 0
n_w3_t12_k1 0
n_w3_t12_k2 0
n_w3_t13_k0 0
n_w3_t13_k1 0
n_w3_t13_k2 0
n_w3_t14_k0 0
n_w3_t14_k1 0
n_w3_t14_k2 0
n_w3_t15_k0 0
n_w3_t15_k1 0
n_w3_t15_k2 0
n_w3_t16_k0 0
n_w3_t16_k1 0
n_w3_t16_k2 0
n_w3_t17_k0 0
n_w3_t17_k1 0
n_w3_t17_k2 0
n_w3_t18_k0 0
n_w3_t18_k1 0
n_w3_t18_k2 0
n_w3_t19_k0 0
n_w3_t19_k1 0
n_w3_t19_k2 0
n_w3_t20_k0 0
n_w3_t20_k1 0
n_w3_t20_k2 0
n_w3_t21_k0 0
n_w3_t21_k1 0
n_w3_t21_k2 0
n_w3_t22_k0 0
n_w3_t22_k1 0
n_w3_t22_k2 0
n_w3_t23_k0 0
n_w3_t23_k1 0
n_w3_t23_k2 0
n_w3_t24_k0 0
n_w3_t24_k1 0
n_w3_t24_k2 0
n_w3_t25_k0 0
n_w3_t25_k1 0
n_w3_t25_k2 0
n_w3_t26_k0 0
n_w3_t26_k1 0
n_w3_t26_k2 0
n_w3_t27_k0 0
n_w3_t27_k1 0
n_w3_t27_k2 0
n_w3_t28_k0 0
n_w3_t28_k1 0
n_w3_t28_k2 0
n_w3_t29_k0 0
n_w3_t29_k1 0
n_w3_t29_k2 0
n_w3_t30_k0 0
n_w3_t30_k1 0
n_w3_t30_k2 0
n_w3_t31_k0 0
n_w3_t31_k1 0
n_w3_t31_k2 0
n_w3_t32_k0 0
n_w3_t32_k1 0
n_w3_t32_k2 0
n_w3_t33_k0 4.6910332117802893e+00
n_w3_t33_k1 1.5147557799426616e+01
n_w3_t33_k2 17
n_w3_t34_k0 0
n_w3_t34_k1 0
n_w3_t34_k2 0
n_w3_t35_k0 0
n_w3_t35_k1 0
n_w3_t35_k2 0
n_w3_t36_k0 0
n_w3_t36_k1 0
n_w3_t36_k2 0
n_w3_t37_k0 0
n_w3_t37_k1 0
n_w3_t37_k2 0
n_w3_t38_k0 0
n_w3_t38_k1 0
n_w3_t38_k2 0
n_w3_t39_k0 0
n_w3_t39_k1 0
n_w3_t39_k2 0
n_w3_t40_k0 0
n_w3_t40_k1 0
n_w3_t40_k2 0
n_w3_t41_k0 0
n_w3_t41_k1 0
n_w3_t41_k2 0
n_w4_t0_k0 0
n_w4_t0_k1 65
n_w4_t0_k2 0
n_w4_t1_k0 0
n_w4_t1_k1 0
n_w4_t1_k2 0
n_w4_t2_k0 0
n_w4_t2_k1 0
n_w4_t2_k2 0
n_w4_t3_k0 0
n_w4_t3_k1 0
n_w4_t3_k2 0
n_w4_t4_k0 0
n_w4_t4_k1 0
n_w4_t4_k2 0
n_w4_t5_k0 0
n_w4_t5_k1 0
n_w4_t5_k2 0
n_w4_t6_k0 0
n_w4_t6_k1 0
n_w4_t6_k2 0
n_w4_t7_k0 0
n_w4_t7_k1 0
n_w4_t7_k2 0
n_w4_t8_k0 0
n_w4_t8_k1 0
n_w4_t8_k2 0
n_w4_t9_k0 0
n_w4_t9_k1 0
n_w4_t9_k2 0
n_w4_t10_k0 0
n_w4_t10_k1 0
n_w4_t10_k2 0
n_w4_t11_k0 0
n_w4_t11_k1 0
n_w4_t11_k2 0
n_w4_t12_k0 0
n_w4_t12_k1 0
n_w4_t12_k2 0
n_w4_t13_k0 0
n_w4_t13_k1 0
n_w4_t13_k2 0
n_w4_t14_k0 0
n_w4_t14_k1 0
n_w4_t14_k2 0
n_w4_t15_k0 0
n_w4_t15_k1 0
n_w4_t15_k2 0
n_w4_t16_k0 0
n_w4_t16_k1 0
n_w4_t16_k2 0
n_w4_t17_k0 0
n_w4_t17_k1 0
n_w4_t17_k2 0
n_w4_t18_k0 0
n_w4_t18_k1 0
n_w4_t18_k2 0
n_w4_t19_k0 0
n_w4_t19_k1 0
n_w4_t19_k2 0
n_w4_t20_k0 0
n_w4_t20_k1 0
n_w4_t20_k2 0
n_w4_t21_k0 0
n_w4_t21_k1 0
n_w4_t21_k2 0
n_w4_t22_k0 0
n_w4_t22_k1 0
n_w4_t22_k2 0
n_w4_t23_k0 0
n_w4_t23_k1 0
n_w4_t23_k2 0
n_w4_t24_k0 0
n_w4_t24_k1 0
n_w4_t24_k2 0
n_w4_t25_k0 0
n_w4_t25_k1 0
n_w4_t25_k2 0
n_w4_t26_k0 0
n_w4_t26_k1 0
n_w4_t26_k2 0
n_w4_t27_k0 0
n_w4_t27_k1 0
n_w4_t27_k2 0
n_w4_t28_k0 0
n_w4_t28_k1 0
n_w4_t28_k2 0
n_w4_t29_k0 0
n_w4_t29_k1 0
n_w4_t29_k2 0
n_w4_t30_k0 0
n_w4_t30_k1 0
n_w4_t30_k2 0
n_w4_t31_k0 0
n_w4_t31_k1 0
n_w4_t31_k2 0
n_w4_t32_k0 0
n_w4_t32_k1 0
n_w4_t32_k2 0
n_w4_t33_k0 0
n_w4_t33_k1 0
n_w4_t33_k2 0
n_w4_t34_k0 0
n_w4_t34_k1 0
n_w4_t34_k2 0
n_w4_t35_k0 0
n_w4_t35_k1 0
n_w4_t35_k2 0
n_w4_t36_k0 0
n_w4_t36_k1 0
n_w4_t36_k2 0
n_w4_t37_k0 0
n_w4_t37_k1 0
n_w4_t37_k2 0
n_w4_t38_k0 0
n_w4_t38_k1 0
n_w4_t38_k2 0
n_w4_t39_k0 0
n_w4_t39_k1 0
n_w4_t39_k2 0
n_w4_t40_k0 0
n_w4_t40_k1 0
n_w4_t40_k2 0
n_w4_t41_k0 0
n_w4_t41_k1 0
n_w4_t41_k2 0
ni_s0_w0_t0_k0 0
ni_s0_w0_t0_k1 0
ni_s0_w0_t0_k2 0
ni_s0_w0_t1_k0 0
ni_s0_w0_t1_k1 0
ni_s0_w0_t1_k2 0
ni_s0_w0_t2_k0 0
ni_s0_w0_t2_k1 0
ni_s0_w0_t2_k2 0
ni_s0_w0_t3_k0 0
ni_s0_w0_t3_k1 0
ni_s0_w0_t3_k2 0
ni_s0_w0_t4_k0 0
ni_s0_w0_t4_k1 0
ni_s0_w0_t4_k2 0
ni_s0_w0_t5_k0 0
ni_s0_w0_t5_k1 0
ni_s0_w0_t5_k2 0
ni_s0_w0_t6_k0 0
ni_s0_w0_t6_k1 0
ni_s0_w0_t6_k2 0
ni_s0_w0_t7_k0 0
ni_s0_w0_t7_k1 0
ni_s0_w0_t7_k2 0
ni_s0_w0_t8_k0 0
ni_s0_w0_t8_k1 0
ni_s0_w0_t8_k2 0
ni_s0_w0_t9_k0 0
ni_s0_w0_t9_k1 0
ni_s0_w0_t9_k2 0
ni_s0_w0_t10_k0 0
ni_s0_w0_t10_k1 0
ni_s0_w0_t10_k2 0
ni_s0_w0_t11_k0 0
ni_s0_w0_t11_k1 0
ni_s0_w0_t11_k2 0
ni_s0_w0_t12_k0 0
ni_s0_w0_t12_k1 0
ni_s0_w0_t12_k2 0
ni_s0_w0_t13_k0 0
ni_s0_w0_t13_k1 0
ni_s0_w0_t13_k2 0
ni_s0_w0_t14_k0 0
ni_s0_w0_t14_k1 0
ni_s0_w0_t14_k2 0
ni_s0_w0_t15_k0 0
ni_s0_w0_t15_k1 0
ni_s0_w0_t15_k2 0
ni_s0_w0_t16_k0 0
ni_s0_w0_t16_k1 0
ni_s0_w0_t16_k2 0
ni_s0_w0_t17_k0 0
ni_s0_w0_t17_k1 0
ni_s0_w0_t17_k2 0
ni_s0_w0_t18_k0 0
ni_s0_w0_t18_k1 0
ni_s0_w0_t18_k2 0
ni_s0_w0_t19_k0 0
ni_s0_w0_t19_k1 0
ni_s0_w0_t19_k2 0
ni_s0_w0_t20_k0 0
ni_s0_w0_t20_k1 0
ni_s0_w0_t20_k2 0
ni_s0_w0_t21_k0 0
ni_s0_w0_t21_k1 0
ni_s0_w0_t21_k2 0
ni_s0_w0_t22_k0 0
ni_s0_w0_t22_k1 0
ni_s0_w0_t22_k2 0
ni_s0_w0_t23_k0 0
ni_s0_w0_t23_k1 0
ni_s0_w0_t23_k2 0
ni_s0_w0_t24_k0 0
ni_s0_w0_t24_k1 0
ni_s0_w0_t24_k2 0
ni_s0_w0_t25_k0 0
ni_s0_w0_t25_k1 0
ni_s0_w0_t25_k2 0
ni_s0_w0_t26_k0 0
ni_s0_w0_t26_k1 0
ni_s0_w0_t26_k2 0
ni_s0_w0_t27_k0 0
ni_s0_w0_t27_k1 0
ni_s0_w0_t27_k2 0
ni_s0_w0_t28_k0 0
ni_s0_w0_t28_k1 0
ni_s0_w0_t28_k2 0
ni_s0_w0_t29_k0 0
ni_s0_w0_t29_k1 0
ni_s0_w0_t29_k2 0
ni_s0_w0_t30_k0 0
ni_s0_w0_t30_k1 0
ni_s0_w0_t30_k2 0
ni_s0_w0_t31_k0 0
ni_s0_w0_t31_k1 0
ni_s0_w0_t31_k2 0
ni_s0_w0_t32_k0 0
ni_s0_w0_t32_k1 0
ni_s0_w0_t32_k2 0
ni_s0_w0_t33_k0 0
ni_s0_w0_t33_k1 0
ni_s0_w0_t33_k2 0
ni_s0_w0_t34_k0 0
ni_s0_w0_t34_k1 0
ni_s0_w0_t34_k2 0
ni_s0_w0_t35_k0 0
ni_s0_w0_t35_k1 0
ni_s0_w0_t35_k2 0
ni_s0_w0_t36_k0 0
ni_s0_w0_t36_k1 0
ni_s0_w0_t36_k2 0
ni_s0_w0_t37_k0 0
ni_s0_w0_t37_k1 0
ni_s0_w0_t37_k2 0
ni_s0_w0_t38_k0 0
ni_s0_w0_t38_k1 0
ni_s0_w0_t38_k2 0
ni_s0_w0_t39_k0 0
ni_s0_w0_t39_k1 0
ni_s0_w0_t39_k2 0
ni_s0_w0_t40_k0 0
ni_s0_w0_t40_k1 0
ni_s0_w0_t40_k2 0
ni_s0_w0_t41_k0 0
ni_s0_w0_t41_k1 0
ni_s0_w0_t41_k2 0
ni_s0_w1_t0_k0 2.5665669507606857e+01
ni_s0_w1_t0_k1 0
ni_s0_w1_t0_k2 1.2233497363518579e+01
ni_s0_w1_t1_k0 0
ni_s0_w1_t1_k1 0
ni_s0_w1_t1_k2 0
ni_s0_w1_t2_k0 0
ni_s0_w1_t2_k1 0
ni_s0_w1_t2_k2 0
ni_s0_w1_t3_k0 1.3343304923931405e+00
ni_s0_w1_t3_k1 0
ni_s0_w1_t3_k2 1.5766502636481425e+01
ni_s0_w1_t4_k0 0
ni_s0_w1_t4_k1 0
ni_s0_w1_t4_k2 0
ni_s0_w1_t5_k0 0
ni_s0_w1_t5_k1 0
ni_s0_w1_t5_k2 0
ni_s0_w1_t6_k0 0
ni_s0_w1_t6_k1 0
ni_s0_w1_t6_k2 0
ni_s0_w1_t7_k0 0
ni_s0_w1_t7_k1 0
ni_s0_w1_t7_k2 0
ni_s0_w1_t8_k0 0
ni_s0_w1_t8_k1 0
ni_s0_w1_t8_k2 0
ni_s0_w1_t9_k0 0
ni_s0_w1_t9_k1 0
ni_s0_w1_t9_k2 0
ni_s0_w1_t10_k0 0
ni_s0_w1_t10_k1 0
ni_s0_w1_t10_k2 0
ni_s0_w1_t11_k0 0
ni_s0_w1_t11_k1 0
ni_s0_w1_t11_k2 0
ni_s0_w1_t12_k0 0
ni_s0_w1_t12_k1 0
ni_s0_w1_t12_k2 0
ni_s0_w1_t13_k0 0
ni_s0_w1_t13_k1 0
ni_s0_w1_t13_k2 0
ni_s0_w1_t14_k0 0
ni_s0_w1_t14_k1 0
ni_s0_w1_t14_k2 0
ni_s0_w1_t15_k0 0
ni_s0_w1_t15_k1 0
ni_s0_w1_t15_k2 0
ni_s0_w1_t16_k0 0
ni_s0_w1_t16_k1 0
ni_s0_w1_t16_k2 0
ni_s0_w1_t17_k0 0
ni_s0_w1_t17_k1 0
ni_s0_w1_t17_k2 0
ni_s0_w1_t18_k0 0
ni_s0_w1_t18_k1 0
ni_s0_w1_t18_k2 0
ni_s0_w1_t19_k0 0
ni_s0_w1_t19_k1 0
ni_s0_w1_t19_k2 0
ni_s0_w1_t20_k0 0
ni_s0_w1_t20_k1 0
ni_s0_w1_t20_k2 0
ni_s0_w1_t21_k0 0
ni_s0_w1_t21_k1 0
ni_s0_w1_t21_k2 0
ni_s0_w1_t22_k0 0
ni_s0_w1_t22_k1 0
ni_s0_w1_t22_k2 0
ni_s0_w1_t23_k0 0
ni_s0_w1_t23_k1 0
ni_s0_w1_t23_k2 0
ni_s0_w1_t24_k0 0
ni_s0_w1_t24_k1 0
ni_s0_w1_t24_k2 0
ni_s0_w1_t25_k0 0
ni_s0_w1_t25_k1 0
ni_s0_w1_t25_k2 0
ni_s0_w1_t26_k0 0
ni_s0_w1_t26_k1 0
ni_s0_w1_t26_k2 0
ni_s0_w1_t27_k0 0
ni_s0_w1_t27_k1 0
ni_s0_w1_t27_k2 0
ni_s0_w1_t28_k0 0
ni_s0_w1_t28_k1 0
ni_s0_w1_t28_k2 0
ni_s0_w1_t29_k0 0
ni_s0_w1_t29_k1 0
ni_s0_w1_t29_k2 0
ni_s0_w1_t30_k0 0
ni_s0_w1_t30_k1 0
ni_s0_w1_t30_k2 0
ni_s0_w1_t31_k0 0
ni_s0_w1_t31_k1 0
ni_s0_w1_t31_k2 0
ni_s0_w1_t32_k0 0
ni_s0_w1_t32_k1 0
ni_s0_w1_t32_k2 0
ni_s0_w1_t33_k0 0
ni_s0_w1_t33_k1 0
ni_s0_w1_t33_k2 0
ni_s0_w1_t34_k0 0
ni_s0_w1_t34_k1 0
ni_s0_w1_t34_k2 0
ni_s0_w1_t35_k0 0
ni_s0_w1_t35_k1 0
ni_s0_w1_t35_k2 0
ni_s0_w1_t36_k0 0
ni_s0_w1_t36_k1 0
ni_s0_w1_t36_k2 0
ni_s0_w1_t37_k0 0
ni_s0_w1_t37_k1 0
ni_s0_w1_t37_k2 0
ni_s0_w1_t38_k0 0
ni_s0_w1_t38_k1 0
ni_s0_w1_t38_k2 0
ni_s0_w1_t39_k0 0
ni_s0_w1_t39_k1 0
ni_s0_w1_t39_k2 0
ni_s0_w1_t40_k0 0
ni_s0_w1_t40_k1 0
ni_s0_w1_t40_k2 0
ni_s0_w1_t41_k0 0
ni_s0_w1_t41_k1 0
ni_s0_w1_t41_k2 0
ni_s0_w2_t0_k0 0
ni_s0_w2_t0_k1 0
ni_s0_w2_t0_k2 0
ni_s0_w2_t1_k0 0
ni_s0_w2_t1_k1 0
ni_s0_w2_t1_k2 0
ni_s0_w2_t2_k0 0
ni_s0_w2_t2_k1 0
ni_s0_w2_t2_k2 0
ni_s0_w2_t3_k0 5.3251098283622256e-01
ni_s0_w2_t3_k1 5.4195611886987427e+00
ni_s0_w2_t3_k2 5.0631797933897218e+00
ni_s0_w2_t4_k0 0
ni_s0_w2_t4_k1 0
ni_s0_w2_t4_k2 0
ni_s0_w2_t5_k0 0
ni_s0_w2_t5_k1 0
ni_s0_w2_t5_k2 0
ni_s0_w2_t6_k0 0
ni_s0_w2_t6_k1 0
ni_s0_w2_t6_k2 0
ni_s0_w2_t7_k0 0
ni_s0_w2_t7_k1 0
ni_s0_w2_t7_k2 0
ni_s0_w2_t8_k0 0
ni_s0_w2_t8_k1 0
ni_s0_w2_t8_k2 0
ni_s0_w2_t9_k0 0
ni_s0_w2_t9_k1 0
ni_s0_w2_t9_k2 0
ni_s0_w2_t10_k0 0
ni_s0_w2_t10_k1 0
ni_s0_w2_t10_k2 0
ni_s0_w2_t11_k0 0
ni_s0_w2_t11_k1 0
ni_s0_w2_t11_k2 2.7406026115191196e+01
ni_s0_w2_t12_k0 0
ni_s0_w2_t12_k1 0
ni_s0_w2_t12_k2 0
ni_s0_w2_t13_k0 0
ni_s0_w2_t13_k1 0
ni_s0_w2_t13_k2 0
ni_s0_w2_t14_k0 0
ni_s0_w2_t14_k1 0
ni_s0_w2_t14_k2 0
ni_s0_w2_t15_k0 0
ni_s0_w2_t15_k1 0
ni_s0_w2_t15_k2 0
ni_s0_w2_t16_k0 0
ni_s0_w2_t16_k1 0
ni_s0_w2_t16_k2 0
ni_s0_w2_t17_k0 0
ni_s0_w2_t17_k1 0
ni_s0_w2_t17_k2 0
ni_s0_w2_t18_k0 0
ni_s0_w2_t18_k1 0
ni_s0_w2_t18_k2 0
ni_s0_w2_t19_k0 0
ni_s0_w2_t19_k1 0
ni_s0_w2_t19_k2 0
ni_s0_w2_t20_k0 0
ni_s0_w2_t20_k1 0
ni_s0_w2_t20_k2 0
ni_s0_w2_t21_k0 0
ni_s0_w2_t21_k1 0
ni_s0_w2_t21_k2 0
ni_s0_w2_t22_k0 0
ni_s0_w2_t22_k1 0
ni_s0_w2_t22_k2 0
ni_s0_w2_t23_k0 0
ni_s0_w2_t23_k1 0
ni_s0_w2_t23_k2 0
ni_s0_w2_t24_k0 0
ni_s0_w2_t24_k1 0
ni_s0_w2_t24_k2 0
ni_s0_w2_t25_k0 0
ni_s0_w2_t25_k1 0
ni_s0_w2_t25_k2 0
ni_s0_w2_t26_k0 0
ni_s0_w2_t26_k1 0
ni_s0_w2_t26_k2 0
ni_s0_w2_t27_k0 0
ni_s0_w2_t27_k1 0
ni_s0_w2_t27_k2 0
ni_s0_w2_t28_k0 0
ni_s0_w2_t28_k1 0
ni_s0_w2_t28_k2 0
ni_s0_w2_t29_k0 0
ni_s0_w2_t29_k1 0
ni_s0_w2_t29_k2 0
ni_s0_w2_t30_k0 0
ni_s0_w2_t30_k1 0
ni_s0_w2_t30_k2 0
ni_s0_w2_t31_k0 0
ni_s0_w2_t31_k1 0
ni_s0_w2_t31_k2 0
ni_s0_w2_t32_k0 0
ni_s0_w2_t32_k1 0
ni_s0_w2_t32_k2 0
ni_s0_w2_t33_k0 7.5835741109618642e+00
ni_s0_w2_t33_k1 1.0358043881130125e+02
ni_s0_w2_t33_k2 1.2653079409141907e+02
ni_s0_w2_t34_k0 0
ni_s0_w2_t34_k1 0
ni_s0_w2_t34_k2 0
ni_s0_w2_t35_k0 0
ni_s0_w2_t35_k1 0
ni_s0_w2_t35_k2 0
ni_s0_w2_t36_k0 0
ni_s0_w2_t36_k1 0
ni_s0_w2_t36_k2 0
ni_s0_w2_t37_k0 0
ni_s0_w2_t37_k1 0
ni_s0_w2_t37_k2 0
ni_s0_w2_t38_k0 5.8839149062019143e+00
ni_s0_w2_t38_k1 0
ni_s0_w2_t38_k2 0
ni_s0_w2_t39_k0 0
ni_s0_w2_t39_k1 0
ni_s0_w2_t39_k2 0
ni_s0_w2_t40_k0 0
ni_s0_w2_t40_k1 0
ni_s0_w2_t40_k2 0
ni_s0_w2_t41_k0 0
ni_s0_w2_t41_k1 0
ni_s0_w2_t41_k2 0
ni_s0_w3_t0_k0 7.3089667882197116e+00
ni_s0_w3_t0_k1 8.5244220057338349e-01
ni_s0_w3_t0_k2 0
ni_s0_w3_t1_k0 0
ni_s0_w3_t1_k1 0
ni_s0_w3_t1_k2 0
ni_s0_w3_t2_k0 0
ni_s0_w3_t2_k1 0
ni_s0_w3_t2_k2 0
ni_s0_w3_t3_k0 0
ni_s0_w3_t3_k1 0
ni_s0_w3_t3_k2 0
ni_s0_w3_t4_k0 0
ni_s0_w3_t4_k1 0
ni_s0_w3_t4_k2 0
ni_s0_w3_t5_k0 0
ni_s0_w3_t5_k1 0
ni_s0_w3_t5_k2 0
ni_s0_w3_t6_k0 0
ni_s0_w3_t6_k1 0
ni_s0_w3_t6_k2 0
ni_s0_w3_t7_k0 0
ni_s0_w3_t7_k1 0
ni_s0_w3_t7_k2 0
ni_s0_w3_t8_k0 0
ni_s0_w3_t8_k1 0
ni_s0_w3_t8_k2 0
ni_s0_w3_t9_k0 0
ni_s0_w3_t9_k1 0
ni_s0_w3_t9_k2 0
ni_s0_w3_t10_k0 0
ni_s0_w3_t10_k1 0
ni_s0_w3_t10_k2 0
ni_s0_w3_t11_k0 0
ni_s0_w3_t11_k1 0
ni_s0_w3_t11_k2 0
ni_s0_w3_t12_k0 0
ni_s0_w3_t12_k1 0
ni_s0_w3_t12_k2 0
ni_s0_w3_t13_k0 0
ni_s0_w3_t13_k1 0
ni_s0_w3_t13_k2 0
ni_s0_w3_t14_k0 0
ni_s0_w3_t14_k1 0
ni_s0_w3_t14_k2 0
ni_s0_w3_t15_k0 0
ni_s0_w3_t15_k1 0
ni_s0_w3_t15_k2 0
ni_s0_w3_t16_k0 0
ni_s0_w3_t16_k1 0
ni_s0_w3_t16_k2 0
ni_s0_w3_t17_k0 0
ni_s0_w3_t17_k1 0
ni_s0_w3_t17_k2 0
ni_s0_w3_t18_k0 0
ni_s0_w3_t18_k1 0
ni_s0_w3_t18_k2 0
ni_s0_w3_t19_k0 0
ni_s0_w3_t19_k1 0
ni_s0_w3_t19_k2 0
ni_s0_w3_t20_k0 0
ni_s0_w3_t20_k1 0
ni_s0_w3_t20_k2 0
ni_s0_w3_t21_k0 0
ni_s0_w3_t21_k1 0
ni_s0_w3_t21_k2 0
ni_s0_w3_t22_k0 0
ni_s0_w3_t22_k1 0
ni_s0_w3_t22_k2 0
ni_s0_w3_t23_k0 0
ni_s0_w3_t23_k1 0
ni_s0_w3_t23_k2 0
ni_s0_w3_t24_k0 0
ni_s0_w3_t24_k1 0
ni_s0_w3_t24_k2 0
ni_s0_w3_t25_k0 0
ni_s0_w3_t25_k1 0
ni_s0_w3_t25_k2 0
ni_s0_w3_t26_k0 0
ni_s0_w3_t26_k1 0
ni_s0_w3_t26_k2 0
ni_s0_w3_t27_k0 0
ni_s0_w3_t27_k1 0
ni_s0_w3_t27_k2 0
ni_s0_w3_t28_k0 0
ni_s0_w3_t28_k1 0
ni_s0_w3_t28_k2 0
ni_s0_w3_t29_k0 0
ni_s0_w3_t29_k1 0
ni_s0_w3_t29_k2 0
ni_s0_w3_t30_k0 0
ni_s0_w3_t30_k1 0
ni_s0_w3_t30_k2 0
ni_s0_w3_t31_k0 0
ni_s0_w3_t31_k1 0
ni_s0_w3_t31_k2 0
ni_s0_w3_t32_k0 0
ni_s0_w3_t32_k1 0
ni_s0_w3_t32_k2 0
ni_s0_w3_t33_k0 4.6910332117802893e+00
ni_s0_w3_t33_k1 1.5147557799426616e+01
ni_s0_w3_t33_k2 17
ni_s0_w3_t34_k0 0
ni_s0_w3_t34_k1 0
ni_s0_w3_t34_k2 0
ni_s0_w3_t35_k0 0
ni_s0_w3_t35_k1 0
ni_s0_w3_t35_k2 0
ni_s0_w3_t36_k0 0
ni_s0_w3_t36_k1 0
ni_s0_w3_t36_k2 0
ni_s0_w3_t37_k0 0
ni_s0_w3_t37_k1 0
ni_s0_w3_t37_k2 0
ni_s0_w3_t38_k0 0
ni_s0_w3_t38_k1 0
ni_s0_w3_t38_k2 0
ni_s0_w3_t39_k0 0
ni_s0_w3_t39_k1 0
ni_s0_w3_t39_k2 0
ni_s0_w3_t40_k0 0
ni_s0_w3_t40_k1 0
ni_s0_w3_t40_k2 0
ni_s0_w3_t41_k0 0
ni_s0_w3_t41_k1 0
ni_s0_w3_t41_k2 0
ni_s0_w4_t0_k0 0
ni_s0_w4_t0_k1 65
ni_s0_w4_t0_k2 0
ni_s0_w4_t1_k0 0
ni_s0_w4_t1_k1 0
ni_s0_w4_t1_k2 0
ni_s0_w4_t2_k0 0
ni_s0_w4_t2_k1 0
ni_s0_w4_t2_k2 0
ni_s0_w4_t3_k0 0
ni_s0_w4_t3_k1 0
ni_s0_w4_t3_k2 0
ni_s0_w4_t4_k0 0
ni_s0_w4_t4_k1 0
ni_s0_w4_t4_k2 0
ni_s0_w4_t5_k0 0
ni_s0_w4_t5_k1 0
ni_s0_w4_t5_k2 0
ni_s0_w4_t6_k0 0
ni_s0_w4_t6_k1 0
ni_s0_w4_t6_k2 0
ni_s0_w4_t7_k0 0
ni_s0_w4_t7_k1 0
ni_s0_w4_t7_k2 0
ni_s0_w4_t8_k0 0
ni_s0_w4_t8_k1 0
ni_s0_w4_t8_k2 0
ni_s0_w4_t9_k0 0
ni_s0_w4_t9_k1 0
ni_s0_w4_t9_k2 0
ni_s0_w4_t10_k0 0
ni_s0_w4_t10_k1 0
ni_s0_w4_t10_k2 0
ni_s0_w4_t11_k0 0
ni_s0_w4_t11_k1 0
ni_s0_w4_t11_k2 0
ni_s0_w4_t12_k0 0
ni_s0_w4_t12_k1 0
ni_s0_w4_t12_k2 0
ni_s0_w4_t13_k0 0
ni_s0_w4_t13_k1 0
ni_s0_w4_t13_k2 0
ni_s0_w4_t14_k0 0
ni_s0_w4_t14_k1 0
ni_s0_w4_t14_k2 0
ni_s0_w4_t15_k0 0
ni_s0_w4_t15_k1 0
ni_s0_w4_t15_k2 0
ni_s0_w4_t16_k0 0
ni_s0_w4_t16_k1 0
ni_s0_w4_t16_k2 0
ni_s0_w4_t17_k0 0
ni_s0_w4_t17_k1 0
ni_s0_w4_t17_k2 0
ni_s0_w4_t18_k0 0
ni_s0_w4_t18_k1 0
ni_s0_w4_t18_k2 0
ni_s0_w4_t19_k0 0
ni_s0_w4_t19_k1 0
ni_s0_w4_t19_k2 0
ni_s0_w4_t20_k0 0
ni_s0_w4_t20_k1 0
ni_s0_w4_t20_k2 0
ni_s0_w4_t21_k0 0
ni_s0_w4_t21_k1 0
ni_s0_w4_t21_k2 0
ni_s0_w4_t22_k0 0
ni_s0_w4_t22_k1 0
ni_s0_w4_t22_k2 0
ni_s0_w4_t23_k0 0
ni_s0_w4_t23_k1 0
ni_s0_w4_t23_k2 0
ni_s0_w4_t24_k0 0
ni_s0_w4_t24_k1 0
ni_s0_w4_t24_k2 0
ni_s0_w4_t25_k0 0
ni_s0_w4_t25_k1 0
ni_s0_w4_t25_k2 0
ni_s0_w4_t26_k0 0
ni_s0_w4_t26_k1 0
ni_s0_w4_t26_k2 0
ni_s0_w4_t27_k0 0
ni_s0_w4_t27_k1 0
ni_s0_w4_t27_k2 0
ni_s0_w4_t28_k0 0
ni_s0_w4_t28_k1 0
ni_s0_w4_t28_k2 0
ni_s0_w4_t29_k0 0
ni_s0_w4_t29_k1 0
ni_s0_w4_t29_k2 0
ni_s0_w4_t30_k0 0
ni_s0_w4_t30_k1 0
ni_s0_w4_t30_k2 0
ni_s0_w4_t31_k0 0
ni_s0_w4_t31_k1 0
ni_s0_w4_t31_k2 0
ni_s0_w4_t32_k0 0
ni_s0_w4_t32_k1 0
ni_s0_w4_t32_k2 0
ni_s0_w4_t33_k0 0
ni_s0_w4_t33_k1 0
ni_s0_w4_t33_k2 0
ni_s0_w4_t34_k0 0
ni_s0_w4_t34_k1 0
ni_s0_w4_t34_k2 0
ni_s0_w4_t35_k0 0
ni_s0_w4_t35_k1 0
ni_s0_w4_t35_k2 0
ni_s0_w4_t36_k0 0
ni_s0_w4_t36_k1 0
ni_s0_w4_t36_k2 0
ni_s0_w4_t37_k0 0
ni_s0_w4_t37_k1 0
ni_s0_w4_t37_k2 0
ni_s0_w4_t38_k0 0
ni_s0_w4_t38_k1 0
ni_s0_w4_t38_k2 0
ni_s0_w4_t39_k0 0
ni_s0_w4_t39_k1 0
ni_s0_w4_t39_k2 0
ni_s0_w4_t40_k0 0
ni_s0_w4_t40_k1 0
ni_s0_w4_t40_k2 0
ni_s0_w4_t41_k0 0
ni_s0_w4_t41_k1 0
ni_s0_w4_t41_k2 0
o_w0_r0 0
o_w0_r1 0
o_w0_r2 0
o_w0_r3 0
o_w0_r4 0
o_w0_r5 0
o_w1_r0 1.6899166871125438e+01
o_w1_r1 0
o_w1_r2 0
o_w1_r3 1.0083312887456586e-01
o_w1_r4 0
o_w1_r5 0
o_w2_r0 1.6899166871125438e+01
o_w2_r1 0
o_w2_r2 0
o_w2_r3 0
o_w2_r4 0
o_w2_r5 3.9578721919884103e+01
o_w3_r0 4.0605758599185329e+00
o_w3_r1 0
o_w3_r2 0
o_w3_r3 0
o_w3_r4 0
o_w3_r5 0
o_w4_r0 4.8060575859918529e+01
o_w4_r1 0
o_w4_r2 0
o_w4_r3 0
o_w4_r4 0
o_w4_r5 0
oi_w0_r0_s0 0
oi_w0_r0_s1 0
oi_w0_r0_s2 0
oi_w0_r0_s3 0
oi_w0_r0_s4 0
oi_w0_r0_s5 0
oi_w0_r1_s0 1.6899166871125438e+01
oi_w0_r1_s1 0
oi_w0_r1_s2 0
oi_w0_r1_s3 1.0083312887456586e-01
oi_w0_r1_s4 0
oi_w0_r1_s5 0
oi_w0_r2_s0 1.6899166871125438e+01
oi_w0_r2_s1 0
oi_w0_r2_s2 0
oi_w0_r2_s3 0
oi_w0_r2_s4 0
oi_w0_r2_s5 3.9578721919884103e+01
oi_w0_r3_s0 4.0605758599185329e+00
oi_w0_r3_s1 0
oi_w0_r3_s2 0
oi_w0_r3_s3 0
oi_w0_r3_s4 0
oi_w0_r3_s5 0
oi_w0_r4_s0 4.8060575859918529e+01
oi_w0_r4_s1 0
oi_w0_r4_s2 0
oi_w0_r4_s3 0
oi_w0_r4_s4 0
oi_w0_r4_s5 0
y_w0_r0 0
y_w0_r1 0
y_w0_r2 0
y_w0_r3 0
y_w0_r4 0
y_w0_r5 0
y_w1_r0 1
y_w1_r1 0
y_w1_r2 0
y_w1_r3 1
y_w1_r4 0
y_w1_r5 0
y_w2_r0 0
y_w2_r1 1
y_w2_r2 1
y_w2_r3 1
y_w2_r4 0
y_w2_r5 2
y_w3_r0 1
y_w3_r1 1
y_w3_r2 1
y_w3_r3 0
y_w3_r4 0
y_w3_r5 1
y_w4_r0 1
y_w4_r1 0
y_w4_r2 0
y_w4_r3 0
y_w4_r4 0
y_w4_r5 0
yi_w0_r0_s0 0
yi_w0_r0_s1 0
yi_w0_r0_s2 0
yi_w0_r0_s3 0
yi_w0_r0_s4 0
yi_w0_r0_s5 0
yi_w0_r1_s0 1
yi_w0_r1_s1 0
yi_w0_r1_s2 0
yi_w0_r1_s3 1
yi_w0_r1_s4 0
yi_w0_r1_s5 0
yi_w0_r2_s0 0
yi_w0_r2_s1 1
yi_w0_r2_s2 1
yi_w0_r2_s3 1
yi_w0_r2_s4 0
yi_w0_r2_s5 2
yi_w0_r3_s0 1
yi_w0_r3_s1 1
yi_w0_r3_s2 1
yi_w0_r3_s3 0
yi_w0_r3_s4 0
yi_w0_r3_s5 1
yi_w0_r4_s0 1
yi_w0_r4_s1 0
yi_w0_r4_s2 0
yi_w0_r4_s3 0
yi_w0_r4_s4 0
yi_w0_r4_s5 0
yb_w0_r0_s0 0
yb_w0_r0_s1 0
yb_w0_r0_s2 0
yb_w0_r0_s3 0
yb_w0_r0_s4 0
yb_w0_r0_s5 0
yb_w0_r1_s0 0
yb_w0_r1_s1 0
yb_w0_r1_s2 0
yb_w0_r1_s3 1
yb_w0_r1_s4 0
yb_w0_r1_s5 0
yb_w0_r2_s0 0
yb_w0_r2_s1 1
yb_w0_r2_s2 1
yb_w0_r2_s3 1
yb_w0_r2_s4 0
yb_w0_r2_s5 0
yb_w0_r3_s0 0
yb_w0_r3_s1 1
yb_w0_r3_s2 1
yb_w0_r3_s3 0
yb_w0_r3_s4 0
yb_w0_r3_s5 1
yb_w0_r4_s0 1
yb_w0_r4_s1 0
yb_w0_r4_s2 0
yb_w0_r4_s3 0
yb_w0_r4_s4 0
yb_w0_r4_s5 0
yb_w20_r0_s0 0
yb_w20_r0_s1 0
yb_w20_r0_s2 0
yb_w20_r0_s3 0
yb_w20_r0_s4 0
yb_w20_r0_s5 0
yb_w20_r1_s0 0
yb_w20_r1_s1 0
yb_w20_r1_s2 0
yb_w20_r1_s3 0
yb_w20_r1_s4 0
yb_w20_r1_s5 0
yb_w20_r2_s0 0
yb_w20_r2_s1 0
yb_w20_r2_s2 0
yb_w20_r2_s3 0
yb_w20_r2_s4 0
yb_w20_r2_s5 0
yb_w20_r3_s0 0
yb_w20_r3_s1 0
yb_w20_r3_s2 0
yb_w20_r3_s3 0
yb_w20_r3_s4 0
yb_w20_r3_s5 0
yb_w20_r4_s0 0
yb_w20_r4_s1 0
yb_w20_r4_s2 0
yb_w20_r4_s3 0
yb_w20_r4_s4 0
yb_w20_r4_s5 0
p_w0 0
s_w0 0
p_w1 5
s_w1 5
p_w2 11
s_w2 6
p_w3 10
s_w3 4
p_w4 4
s_w4 0
